# created by fftool

units real
boundary p p p

atom_style full
bond_style harmonic
angle_style harmonic
dihedral_style opls

special_bonds lj/coul 0.0 0.0 0.5

# remove hybrid if not necessary
pair_style hybrid lj/cut/coul/long 12.0 12.0
pair_modify mix geometric tail yes
kspace_style pppm 1.0e-5

#read_data data.lmp
read_restart restart2.lmp

# remove pair style if not using hybrid
pair_coeff    1    1 lj/cut/coul/long     0.065999     3.300000  # C00 C00
pair_coeff    2    2 lj/cut/coul/long     0.065999     3.500000  # C01 C01
pair_coeff    3    3 lj/cut/coul/long     0.170000     3.200000  # N02 N02
pair_coeff    4    4 lj/cut/coul/long     0.030000     2.500000  # H03 H03
pair_coeff    5    5 lj/cut/coul/long     0.030000     2.500000  # H04 H04
pair_coeff    6    6 lj/cut/coul/long     0.030000     2.500000  # H05 H05
pair_coeff    7    7 lj/cut/coul/long     0.155399     3.170000  # OW OW
pair_coeff    8    8 lj/cut/coul/long     0.000000     0.000000  # HW1 HW1
pair_coeff    9    9 lj/cut/coul/long     0.000000     0.000000  # HW2 HW2

#minimize 1.0e-5 1.0e-7 1000 10000
#write_data relax.data
#reset_timestep 0

fix SHAKE all shake 0.0001 20 0 b 3 4 5 6 7

#neighbor 2.0 bin
neigh_modify delay 0 every 1 check yes

timestep 1.0

variable TK equal 300.0
variable TK_2 equal 500.0
variable PBAR equal 1.0

#velocity all create ${TK} 12345

##fix TPSTAT all npt temp ${TK} ${TK} 100 iso ${PBAR} ${PBAR} 1000 ## original one
#fix TPSTAT all npt temp ${TK} ${TK} 100 aniso ${PBAR} ${PBAR} 1000

thermo 1000
thermo_style custom step cpu etotal ke pe evdwl ecoul elong temp press vol density

#dump TRAJ all custom 1000 dump.lammpstrj id mol type element q xu yu zu
#dump_modify TRAJ element C C N H H H O H H

restart 5000 restart1.lmp restart2.lmp

# uncomment the following to rescale to average volume at end of equilibration
#variable vinst equal vol
#fix VAVG all ave/time 10 1000 50000 v_vinst
#
#run 50000
#write_data wacn_npt.data
#
#variable lscale equal (f_VAVG/v_vinst)^(1.0/3.0)
#print "scaling coordinates by ${lscale}"
#change_box all x scale ${lscale} y scale ${lscale} z scale ${lscale} remap
#
#unfix VAVG
#unfix TPSTAT
##fix TSTAT all nvt temp ${TK} ${TK} 100
#
#### NVT Ensemble (Equilibration) ###
#fix TSTAT all nvt temp ${TK_2} ${TK_2} 100
#
##dump TRAJ all custom 1000 wacn_nvt1.lammpstrj id mol type element q xu yu zu
##dump_modify TRAJ element C C N H H H O H H
#
#run 500000
#write_data wacn_nvt1.data

fix TSTAT2 all nvt temp ${TK} ${TK} 100

dump TRAJ2 all custom 1000 wacn_nvt3.lammpstrj id mol type element q xu yu zu
dump_modify TRAJ2 element C C N H H H O H H

variable t equal time
compute MSD all msd com yes
variable msd equal c_MSD[4]
fix PRMSD all print 2000 "${t} ${msd}" file msd.lammps screen no

compute myRDF all rdf 1000 3 3 3 7 3 8 3 9 7 8 7 9
fix 4 all ave/time 1000 1 1000 c_myRDF[*] file wacn_nvt3.rdf mode vector

run 50000000
#write_data wacn_nvt2.data
